NAME: tsp_188
COMMENT: Random TSP instance
TYPE: TSP
DIMENSION: 50
EDGE_WEIGHT_TYPE: EUC_2D
NODE_COORD_SECTION
1 689 297
2 566 108
3 778 247
4 121 107
5 513 833
6 31 105
7 415 581
8 378 406
9 6 998
10 337 249
11 864 928
12 812 333
13 396 713
14 984 611
15 303 736
16 204 428
17 656 207
18 605 545
19 16 404
20 342 404
21 199 372
22 167 113
23 161 616
24 4 793
25 271 1000
26 352 716
27 155 344
28 337 716
29 370 321
30 338 974
31 795 920
32 438 596
33 577 821
34 465 378
35 617 638
36 901 307
37 96 703
38 651 948
39 327 503
40 859 460
41 56 577
42 661 592
43 973 411
44 709 396
45 929 259
46 941 425
47 308 423
48 843 461
49 84 86
50 631 117
